1660
8730
8451
1642
6556
6556
7973
9131
9924
4440
9857
6496
3417
5162
7449
673
5268
1307
7472
7389
3316
3448
2020
6084
3781
3618
7786
2902
9778
8126
438
9536
3396
8338
8056
1935
4621
3688
5864
2227
1839
3090
8604
2206
8006
4675
8743
8533
5778
1072
8483
